2059
3942
6553
7371
8027
3861
4519
1786
5089
7453
5220
8210
10159
3960
3825
2551
6576
1417
478
4316
7601
7431
4432
1057
9226
4393
4326
8394
5721
7783
882
7561
2880
534
7161
3484
9668
6888
4570
3705
3878
7389
3364
5119
5847
2461
5619
9769
2975
9654
6179
